unsat
(:max-memory                   18.05
 :memory                       17.95
 :nlsat-conflicts              12
 :nlsat-decisions              2
 :nlsat-irrational-assignments 8
 :nlsat-propagations           50
 :nlsat-stages                 22
 :num-allocs                   29766
 :rlimit-count                 5582
 :time                         0.00
 :total-time                   0.01)
